language ESSENCE' 1.0

letting jobs = 102
letting horizon = 832
letting resourcesRenew = 2
letting resourcesNonrenew = 2
letting resourceLimits = [39, 36, 164, 127]
letting successors = [[2, 3, 4, 5, 6, 7, 8, 9, 10, 12, 13, 14, 17, 19, 20, 21, 22, 23, 24, 28, 31, 34, 36, 37, 43, 50], [100, 98, 93, 92, 70, 57, 46, 41, 40, 29, 16, 15], [99, 70, 56, 55, 52, 51, 48, 44, 42, 33, 18, 11], [101, 100, 89, 70, 69, 67, 63, 59, 58, 57, 53, 48, 45, 42, 39, 38, 30, 25], [101, 70, 66, 53, 52, 51, 46, 40, 39, 33, 29, 26], [100, 99, 90, 87, 84, 71, 68, 67, 66, 64, 61, 58, 57, 55, 54, 52, 45, 26], [98, 94, 89, 87, 85, 71, 70, 69, 65, 63, 59, 55, 54, 51, 45, 27], [98, 96, 92, 89, 84, 82, 69, 67, 66, 63, 52, 44, 38, 25], [97, 96, 91, 89, 67, 63, 61, 56, 55, 53, 51, 42, 32], [98, 97, 96, 88, 85, 83, 80, 71, 70, 69, 68, 62, 60, 59, 49, 48, 44, 40], [94, 92, 87, 85, 71, 69, 67, 66, 64, 61, 45, 26], [96, 95, 93, 92, 82, 81, 79, 69, 66, 65, 60, 56, 38, 33], [97, 93, 92, 89, 87, 70, 69, 66, 65, 64, 62, 58, 55, 51, 48, 46, 42], [94, 90, 85, 84, 70, 66, 64, 61, 58, 45, 26], [99, 91, 90, 89, 87, 85, 84, 79, 68, 67, 66, 64, 62, 61, 59, 55, 47, 45], [97, 91, 90, 89, 87, 86, 68, 67, 65, 63, 60, 52, 51, 44, 42], [100, 94, 90, 89, 85, 79, 71, 66, 65, 64, 61, 60, 59, 58, 56, 42, 39], [80, 71, 66, 62, 58, 41, 35, 30], [99, 96, 93, 91, 89, 88, 87, 86, 84, 82, 78, 63, 62, 61, 58, 57, 55, 51], [99, 95, 92, 91, 89, 88, 86, 84, 80, 69, 67, 63, 61, 60, 59, 47], [100, 97, 93, 92, 89, 88, 87, 86, 84, 83, 79, 78, 77, 76, 68, 64, 62, 61, 60, 59, 58], [97, 96, 95, 94, 93, 89, 88, 87, 85, 82, 81, 79, 77, 76, 64, 58, 38], [94, 93, 92, 86, 78, 66, 64, 60, 59, 58, 57, 56, 51, 49], [94, 91, 86, 85, 65, 63, 62, 60, 59, 58, 56, 42], [99, 95, 91, 90, 88, 87, 86, 85, 78, 77, 76, 68, 65, 64, 62, 61, 60, 51], [96, 93, 91, 89, 88, 86, 83, 80, 78, 77, 76, 75, 73, 65, 63, 62, 60, 59], [92, 91, 88, 86, 81, 80, 79, 66, 62, 61, 60, 58, 46], [97, 93, 92, 88, 86, 85, 84, 82, 80, 79, 77, 68, 65, 61, 58], [94, 85, 84, 83, 82, 78, 72, 69, 68, 58, 56], [94, 93, 88, 87, 86, 84, 83, 82, 81, 79, 78, 77, 75, 74, 73, 60], [93, 91, 89, 84, 83, 81, 79, 78, 77, 73, 61, 55], [93, 92, 90, 82, 80, 79, 77, 75, 66, 62, 52], [97, 89, 88, 85, 84, 83, 78, 76, 72, 64, 61, 58], [94, 87, 85, 79, 77, 76, 75, 71, 62, 60, 59], [94, 92, 85, 79, 78, 77, 74, 73, 68, 60], [98, 92, 86, 84, 81, 80, 76, 74, 73, 65], [96, 87, 86, 85, 84, 81, 80, 76, 72, 63], [91, 90, 86, 80, 78, 73, 72, 62, 61], [92, 81, 80, 78, 77, 76, 75, 74, 73, 72], [89, 87, 82, 78, 76, 75, 74, 73, 63], [91, 89, 79, 76, 74, 60, 59], [88, 84, 83, 82, 80, 78, 77, 76, 75], [84, 82, 81, 78, 73, 64, 63], [95, 79, 78, 77, 61, 58], [96, 95, 86, 80, 78, 76, 75, 73], [84, 83, 77, 74, 73, 67], [83, 77, 76, 75, 58], [81, 77, 75, 74, 73, 72], [90, 84, 79, 74, 73, 72], [87, 85, 82, 81, 77], [83, 81, 79, 73], [95, 94, 85, 72], [82, 74, 73, 72], [95, 93, 92, 75], [80, 76, 60], [87, 77, 76], [85, 83, 72], [74, 73], [82, 81], [72], [75], [74], [79], [80], [72], [76], [78], [75], [90], [86], [81], [102], [102], [102], [102], [102], [102], [102], [102], [102], [102], [102], [102], [102], [102], [102], [102], [102], [102], [102], [102], [102], [102], [102], [102], [102], [102], [102], [102], [102], [102], []]
letting durations = [[0], [2, 3, 8], [1, 2, 4], [4, 6, 7], [1, 4, 7], [5, 6, 7], [2, 9, 10], [1, 2, 4], [5, 9, 10], [2, 5, 9], [6, 7, 9], [1, 4, 7], [3, 4, 9], [3, 3, 9], [6, 7, 8], [8, 8, 9], [7, 8, 9], [4, 7, 8], [4, 5, 7], [2, 6, 10], [3, 4, 5], [3, 6, 10], [2, 3, 5], [2, 5, 5], [7, 9, 10], [3, 4, 8], [3, 6, 10], [1, 4, 9], [1, 2, 6], [6, 6, 9], [7, 7, 9], [1, 8, 8], [5, 7, 9], [8, 8, 9], [7, 8, 9], [2, 5, 6], [6, 9, 10], [2, 10, 10], [7, 7, 10], [2, 3, 7], [1, 1, 5], [1, 4, 9], [4, 9, 10], [3, 8, 10], [6, 8, 9], [1, 2, 4], [1, 8, 10], [6, 9, 10], [1, 6, 10], [8, 9, 10], [4, 4, 5], [7, 9, 10], [2, 6, 9], [5, 9, 10], [5, 6, 7], [2, 6, 8], [2, 5, 9], [2, 5, 9], [2, 5, 9], [3, 3, 7], [4, 9, 10], [4, 6, 10], [2, 3, 5], [5, 7, 9], [2, 5, 10], [4, 4, 9], [3, 5, 9], [5, 8, 8], [3, 3, 8], [1, 2, 10], [6, 7, 8], [5, 6, 8], [2, 6, 9], [2, 5, 9], [6, 7, 9], [5, 6, 7], [1, 2, 5], [3, 4, 9], [1, 7, 10], [1, 7, 8], [4, 6, 7], [5, 9, 9], [7, 9, 10], [1, 7, 8], [1, 9, 9], [2, 7, 8], [3, 4, 5], [1, 8, 10], [1, 2, 6], [1, 2, 6], [2, 6, 8], [2, 7, 10], [5, 7, 8], [2, 5, 10], [4, 7, 10], [2, 5, 10], [4, 4, 9], [2, 4, 6], [1, 9, 9], [6, 7, 10], [1, 9, 9], [0]]
letting resourceUsage = [[[0, 0, 0, 0]], [[6, 0, 0, 4], [5, 0, 0, 3], [0, 4, 2, 0]], [[0, 2, 0, 4], [0, 2, 3, 0], [4, 0, 3, 0]], [[0, 6, 0, 6], [0, 5, 2, 0], [0, 5, 1, 0]], [[0, 7, 0, 4], [0, 6, 7, 0], [9, 0, 0, 2]], [[2, 0, 10, 0], [1, 0, 5, 0], [0, 3, 0, 7]], [[2, 0, 10, 0], [0, 6, 6, 0], [0, 6, 2, 0]], [[6, 0, 9, 0], [0, 4, 0, 3], [0, 3, 0, 1]], [[0, 5, 8, 0], [6, 0, 8, 0], [0, 5, 0, 4]], [[8, 0, 0, 8], [0, 6, 0, 6], [5, 0, 0, 2]], [[9, 0, 6, 0], [0, 3, 4, 0], [0, 2, 0, 3]], [[7, 0, 0, 2], [7, 0, 0, 1], [6, 0, 0, 2]], [[0, 1, 0, 7], [2, 0, 3, 0], [2, 0, 2, 0]], [[6, 0, 0, 3], [0, 4, 6, 0], [0, 2, 0, 1]], [[7, 0, 8, 0], [5, 0, 0, 3], [0, 7, 6, 0]], [[0, 3, 0, 4], [6, 0, 2, 0], [0, 3, 0, 1]], [[0, 7, 5, 0], [1, 0, 0, 3], [1, 0, 0, 2]], [[0, 10, 0, 3], [0, 7, 1, 0], [4, 0, 1, 0]], [[8, 0, 4, 0], [8, 0, 3, 0], [0, 2, 1, 0]], [[0, 9, 0, 8], [0, 9, 0, 7], [0, 9, 3, 0]], [[6, 0, 8, 0], [5, 0, 8, 0], [0, 4, 6, 0]], [[4, 0, 9, 0], [4, 0, 8, 0], [3, 0, 9, 0]], [[4, 0, 4, 0], [4, 0, 3, 0], [4, 0, 2, 0]], [[6, 0, 0, 10], [4, 0, 0, 10], [4, 0, 1, 0]], [[7, 0, 2, 0], [0, 5, 2, 0], [6, 0, 0, 3]], [[7, 0, 4, 0], [0, 4, 4, 0], [0, 3, 2, 0]], [[6, 0, 0, 9], [4, 0, 0, 5], [0, 4, 0, 3]], [[3, 0, 10, 0], [0, 5, 8, 0], [3, 0, 6, 0]], [[0, 5, 6, 0], [0, 3, 6, 0], [8, 0, 2, 0]], [[0, 5, 3, 0], [5, 0, 2, 0], [5, 0, 1, 0]], [[8, 0, 9, 0], [8, 0, 0, 4], [0, 3, 0, 2]], [[0, 8, 0, 7], [4, 0, 3, 0], [4, 0, 0, 2]], [[0, 5, 0, 6], [5, 0, 6, 0], [5, 0, 0, 3]], [[0, 7, 0, 2], [0, 5, 6, 0], [0, 3, 4, 0]], [[9, 0, 0, 5], [0, 7, 7, 0], [0, 7, 0, 1]], [[0, 3, 0, 6], [9, 0, 4, 0], [0, 2, 0, 5]], [[0, 10, 7, 0], [5, 0, 0, 3], [1, 0, 4, 0]], [[6, 0, 7, 0], [0, 8, 0, 1], [5, 0, 1, 0]], [[10, 0, 9, 0], [7, 0, 0, 5], [0, 2, 5, 0]], [[0, 3, 0, 8], [5, 0, 3, 0], [0, 3, 2, 0]], [[3, 0, 0, 9], [0, 8, 2, 0], [3, 0, 2, 0]], [[8, 0, 4, 0], [0, 5, 0, 9], [6, 0, 2, 0]], [[0, 5, 0, 6], [9, 0, 4, 0], [7, 0, 1, 0]], [[0, 4, 6, 0], [9, 0, 6, 0], [9, 0, 3, 0]], [[0, 5, 0, 4], [0, 4, 5, 0], [0, 3, 4, 0]], [[0, 6, 0, 2], [1, 0, 9, 0], [0, 3, 9, 0]], [[3, 0, 0, 6], [0, 3, 4, 0], [3, 0, 3, 0]], [[8, 0, 0, 9], [3, 0, 4, 0], [0, 4, 3, 0]], [[0, 5, 0, 3], [7, 0, 0, 1], [0, 5, 0, 1]], [[8, 0, 0, 5], [5, 0, 6, 0], [0, 2, 0, 3]], [[0, 3, 0, 8], [7, 0, 0, 3], [7, 0, 0, 2]], [[7, 0, 0, 2], [0, 2, 5, 0], [5, 0, 4, 0]], [[10, 0, 0, 4], [4, 0, 4, 0], [3, 0, 0, 4]], [[0, 6, 0, 6], [5, 0, 0, 5], [4, 0, 0, 4]], [[0, 9, 0, 5], [9, 0, 4, 0], [0, 8, 0, 4]], [[0, 9, 0, 4], [0, 9, 0, 3], [0, 9, 0, 2]], [[0, 9, 4, 0], [0, 8, 0, 2], [0, 8, 2, 0]], [[0, 8, 5, 0], [5, 0, 4, 0], [0, 3, 4, 0]], [[2, 0, 8, 0], [0, 7, 5, 0], [1, 0, 4, 0]], [[8, 0, 0, 5], [0, 8, 8, 0], [0, 7, 0, 2]], [[8, 0, 6, 0], [0, 9, 0, 5], [0, 9, 1, 0]], [[4, 0, 0, 2], [4, 0, 0, 1], [0, 1, 0, 2]], [[0, 5, 0, 7], [4, 0, 3, 0], [0, 3, 2, 0]], [[6, 0, 0, 3], [0, 2, 6, 0], [0, 2, 0, 1]], [[6, 0, 8, 0], [0, 7, 0, 3], [0, 7, 6, 0]], [[0, 4, 0, 4], [0, 3, 2, 0], [0, 3, 0, 1]], [[0, 7, 5, 0], [5, 0, 0, 3], [0, 5, 0, 3]], [[0, 10, 0, 3], [0, 7, 1, 0], [2, 0, 1, 0]], [[0, 6, 4, 0], [3, 0, 3, 0], [3, 0, 1, 0]], [[0, 2, 0, 8], [5, 0, 0, 7], [0, 1, 3, 0]], [[5, 0, 9, 0], [5, 0, 8, 0], [5, 0, 6, 0]], [[0, 5, 0, 10], [0, 4, 0, 6], [3, 0, 0, 5]], [[0, 8, 0, 4], [6, 0, 0, 3], [0, 5, 1, 0]], [[0, 10, 0, 3], [6, 0, 5, 0], [6, 0, 0, 1]], [[9, 0, 0, 7], [7, 0, 0, 7], [0, 4, 7, 0]], [[7, 0, 0, 8], [0, 2, 0, 7], [0, 2, 0, 5]], [[0, 7, 6, 0], [0, 6, 3, 0], [0, 5, 0, 5]], [[0, 8, 0, 9], [5, 0, 0, 6], [0, 5, 0, 3]], [[0, 3, 1, 0], [0, 2, 0, 5], [0, 2, 1, 0]], [[0, 5, 0, 9], [0, 4, 0, 6], [2, 0, 0, 1]], [[7, 0, 0, 6], [0, 3, 0, 5], [0, 3, 5, 0]], [[0, 8, 4, 0], [0, 7, 0, 9], [0, 5, 2, 0]], [[0, 9, 0, 6], [0, 6, 4, 0], [5, 0, 1, 0]], [[0, 6, 6, 0], [0, 3, 6, 0], [2, 0, 3, 0]], [[0, 7, 0, 4], [5, 0, 5, 0], [0, 2, 4, 0]], [[0, 8, 0, 2], [6, 0, 9, 0], [0, 8, 9, 0]], [[0, 10, 0, 6], [5, 0, 4, 0], [3, 0, 3, 0]], [[5, 0, 0, 9], [0, 7, 4, 0], [0, 7, 3, 0]], [[8, 0, 0, 3], [0, 1, 0, 2], [0, 1, 0, 1]], [[4, 0, 0, 5], [0, 4, 6, 0], [3, 0, 0, 3]], [[0, 9, 0, 8], [5, 0, 0, 3], [4, 0, 0, 2]], [[0, 5, 6, 0], [3, 0, 5, 0], [0, 1, 4, 0]], [[8, 0, 9, 0], [5, 0, 7, 0], [0, 4, 0, 2]], [[6, 0, 6, 0], [3, 0, 0, 3], [2, 0, 2, 0]], [[0, 9, 10, 0], [0, 9, 7, 0], [0, 9, 0, 2]], [[6, 0, 7, 0], [0, 7, 5, 0], [0, 5, 5, 0]], [[0, 6, 0, 5], [2, 0, 0, 4], [0, 4, 2, 0]], [[9, 0, 7, 0], [9, 0, 6, 0], [0, 8, 3, 0]], [[0, 5, 0, 9], [4, 0, 7, 0], [4, 0, 0, 3]], [[8, 0, 9, 0], [7, 0, 6, 0], [6, 0, 4, 0]], [[0, 3, 6, 0], [5, 0, 5, 0], [0, 1, 0, 7]], [[0, 0, 0, 0]]]
